#######################################
### Exact MIP solver for the HHCRSP ###
#######################################
-- Instance file: new-instances/HHCRSP_75_15_98_1.6_R_C.txt
-- Max threads: 4
-- Time limit: 999999 seconds
-- Use initial solution: No
Trivial flow violations prevented generating 20238 variables.
Model exported.
Version identifier: 20.1.0.0 | 2020-11-10 | 9bedb6d68
CPXPARAM_Threads                                 4
CPXPARAM_TimeLimit                               999999
Parallel mode: deterministic, using up to 4 threads for concurrent optimization:
 * Starting dual Simplex on 1 thread...
 * Starting Barrier on 3 threads...
Tried aggregator 1 time.
LP Presolve eliminated 2934 rows and 573 columns.
Reduced LP has 19776 rows, 19008 columns, and 192407 nonzeros.
Presolve time = 0.08 sec. (53.11 ticks)
Symmetry aggregator did 18486 additional substitutions.

Iteration log . . .
Iteration:     1   Dual objective     =             0.000000
Iteration:   345   Dual objective     =            81.166667

Dual crossover.
  Dual:  Fixing 159 variables.
      158 DMoves:  Infeasibility  5.92304457e-14  Objective  8.15075267e+01
        0 DMoves:  Infeasibility  2.22187587e-14  Objective  8.15075267e+01
  Dual:  Pushed 11, exchanged 148.
  Primal:  Fixing 70 variables.
       69 PMoves:  Infeasibility  4.44089210e-16  Objective  8.15075267e+01
        0 PMoves:  Infeasibility  6.66133815e-16  Objective  8.15075267e+01
  Primal:  Pushed 46, exchanged 24.

Dual simplex solved model.


Solution status from MIP model:
-- Processing time: 0.157 sec.
-- Memory used: 82.6836 MB
-- Best bound: inf
-- Obj value: 81.5075
-- Gap: inf%
-- Total distance: 244.523
-- Total tardiness: 0
-- Largest tardiness: 0
